nK = 485;
nT = 4;
nI = 7;
L = 35;
TT = 148;
np = 1;
nc = 3;
b = [41, 38, 55, 39, 63, 30, 60];
d = [79, 101, 127, 73, 117, 87, 111];
m = [1.6, 1.5, 1, 2.2, 1.1, 1.8, 1.8];
pt = [0.34, 0.28, 0.28, 0.28];
st = [19.72, 13.72, 12.32, 15.96];
arc = {<1, 0, 1, 1, 0, 0, 0, [1, 1, 1, 1]>, <2, 1, 2, 1, 0, 0, 0, [1, 1, 1, 1]>, <3, 2, 3, 1, 0, 0, 0, [1, 1, 1, 1]>, <4, 3, 4, 1, 0, 0, 0, [1, 1, 1, 1]>, <5, 4, 5, 1, 0, 0, 0, [1, 1, 1, 1]>, <6, 5, 6, 1, 0, 0, 0, [1, 1, 1, 1]>, <7, 6, 7, 1, 0, 0, 0, [1, 1, 1, 1]>, <8, 7, 8, 1, 0, 0, 0, [1, 1, 1, 1]>, <9, 8, 9, 1, 0, 0, 0, [1, 1, 1, 1]>, <10, 9, 10, 1, 0, 0, 0, [1, 1, 1, 1]>, <11, 10, 11, 1, 0, 0, 0, [1, 1, 1, 1]>, <12, 11, 12, 1, 0, 0, 0, [1, 1, 1, 1]>, <13, 12, 13, 1, 0, 0, 0, [1, 1, 1, 1]>, <14, 13, 14, 1, 0, 0, 0, [1, 1, 1, 1]>, <15, 14, 15, 1, 0, 0, 0, [1, 1, 1, 1]>, <16, 15, 16, 1, 0, 0, 0, [1, 1, 1, 1]>, <17, 16, 17, 1, 0, 0, 0, [1, 1, 1, 1]>, <18, 17, 18, 1, 0, 0, 0, [1, 1, 1, 1]>, <19, 18, 19, 1, 0, 0, 0, [1, 1, 1, 1]>, <20, 19, 20, 1, 0, 0, 0, [1, 1, 1, 1]>, <21, 20, 21, 1, 0, 0, 0, [1, 1, 1, 1]>, <22, 21, 22, 1, 0, 0, 0, [1, 1, 1, 1]>, <23, 22, 23, 1, 0, 0, 0, [1, 1, 1, 1]>, <24, 23, 24, 1, 0, 0, 0, [1, 1, 1, 1]>, <25, 24, 25, 1, 0, 0, 0, [1, 1, 1, 1]>, <26, 25, 26, 1, 0, 0, 0, [1, 1, 1, 1]>, <27, 26, 27, 1, 0, 0, 0, [1, 1, 1, 1]>, <28, 27, 28, 1, 0, 0, 0, [1, 1, 1, 1]>, <29, 28, 29, 1, 0, 0, 0, [1, 1, 1, 1]>, <30, 29, 30, 1, 0, 0, 0, [1, 1, 1, 1]>, <31, 30, 31, 1, 0, 0, 0, [1, 1, 1, 1]>, <32, 31, 32, 1, 0, 0, 0, [1, 1, 1, 1]>, <33, 32, 33, 1, 0, 0, 0, [1, 1, 1, 1]>, <34, 33, 34, 1, 0, 0, 0, [1, 1, 1, 1]>, <35, 34, 35, 1, 0, 0, 0, [1, 1, 1, 1]>, <36, 4, 17, 13, 1, 1, 0, [1, 0, 0, 1]>, <37, 5, 18, 13, 1, 1, 0, [1, 0, 0, 1]>, <38, 6, 19, 13, 1, 1, 0, [1, 0, 0, 1]>, <39, 13, 26, 13, 1, 1, 0, [1, 0, 0, 1]>, <40, 14, 27, 13, 1, 1, 0, [1, 0, 0, 1]>, <41, 15, 28, 13, 1, 1, 0, [1, 0, 0, 1]>, <42, 18, 31, 13, 1, 1, 0, [1, 0, 0, 1]>, <43, 19, 32, 13, 1, 1, 0, [1, 0, 0, 1]>, <44, 20, 33, 13, 1, 1, 0, [1, 0, 0, 1]>, <45, 21, 34, 13, 1, 1, 0, [1, 0, 0, 1]>, <46, 22, 35, 13, 1, 1, 0, [1, 0, 0, 1]>, <47, 5, 15, 10, 2, 1, 0, [1, 1, 0, 0]>, <48, 6, 16, 10, 2, 1, 0, [1, 1, 0, 0]>, <49, 14, 24, 10, 2, 1, 0, [1, 1, 0, 0]>, <50, 15, 25, 10, 2, 1, 0, [1, 1, 0, 0]>, <51, 21, 31, 10, 2, 1, 0, [1, 1, 0, 0]>, <52, 22, 32, 10, 2, 1, 0, [1, 1, 0, 0]>, <53, 23, 33, 10, 2, 1, 0, [1, 1, 0, 0]>, <54, 24, 34, 10, 2, 1, 0, [1, 1, 0, 0]>, <55, 5, 14, 9, 3, 0, 1, [1, 0, 0, 1]>, <56, 6, 15, 9, 3, 0, 1, [1, 0, 0, 1]>, <57, 14, 23, 9, 3, 0, 1, [1, 0, 0, 1]>, <58, 15, 24, 9, 3, 0, 1, [1, 0, 0, 1]>, <59, 22, 31, 9, 3, 0, 1, [1, 0, 0, 1]>, <60, 23, 32, 9, 3, 0, 1, [1, 0, 0, 1]>, <61, 24, 33, 9, 3, 0, 1, [1, 0, 0, 1]>, <62, 5, 15, 10, 4, 0, 1, [1, 0, 0, 1]>, <63, 6, 16, 10, 4, 0, 1, [1, 0, 0, 1]>, <64, 14, 24, 10, 4, 0, 1, [1, 0, 0, 1]>, <65, 15, 25, 10, 4, 0, 1, [1, 0, 0, 1]>, <66, 21, 31, 10, 4, 0, 1, [1, 0, 0, 1]>, <67, 22, 32, 10, 4, 0, 1, [1, 0, 0, 1]>, <68, 23, 33, 10, 4, 0, 1, [1, 0, 0, 1]>, <69, 24, 34, 10, 4, 0, 1, [1, 0, 0, 1]>, <70, 5, 16, 11, 5, 0, 1, [0, 1, 1, 0]>, <71, 6, 17, 11, 5, 0, 1, [0, 1, 1, 0]>, <72, 14, 25, 11, 5, 0, 1, [0, 1, 1, 0]>, <73, 15, 26, 11, 5, 0, 1, [0, 1, 1, 0]>, <74, 20, 31, 11, 5, 0, 1, [0, 1, 1, 0]>, <75, 21, 32, 11, 5, 0, 1, [0, 1, 1, 0]>, <76, 22, 33, 11, 5, 0, 1, [0, 1, 1, 0]>, <77, 23, 34, 11, 5, 0, 1, [0, 1, 1, 0]>, <78, 24, 35, 11, 5, 0, 1, [0, 1, 1, 0]>, <79, 3, 17, 14, 6, 1, 0, [1, 0, 0, 1]>, <80, 4, 18, 14, 6, 1, 0, [1, 0, 0, 1]>, <81, 5, 19, 14, 6, 1, 0, [1, 0, 0, 1]>, <82, 6, 20, 14, 6, 1, 0, [1, 0, 0, 1]>, <83, 12, 26, 14, 6, 1, 0, [1, 0, 0, 1]>, <84, 13, 27, 14, 6, 1, 0, [1, 0, 0, 1]>, <85, 14, 28, 14, 6, 1, 0, [1, 0, 0, 1]>, <86, 15, 29, 14, 6, 1, 0, [1, 0, 0, 1]>, <87, 17, 31, 14, 6, 1, 0, [1, 0, 0, 1]>, <88, 18, 32, 14, 6, 1, 0, [1, 0, 0, 1]>, <89, 19, 33, 14, 6, 1, 0, [1, 0, 0, 1]>, <90, 20, 34, 14, 6, 1, 0, [1, 0, 0, 1]>, <91, 21, 35, 14, 6, 1, 0, [1, 0, 0, 1]>, <92, 5, 15, 10, 7, 0, 1, [1, 1, 0, 0]>, <93, 6, 16, 10, 7, 0, 1, [1, 1, 0, 0]>, <94, 14, 24, 10, 7, 0, 1, [1, 1, 0, 0]>, <95, 15, 25, 10, 7, 0, 1, [1, 1, 0, 0]>, <96, 21, 31, 10, 7, 0, 1, [1, 1, 0, 0]>, <97, 22, 32, 10, 7, 0, 1, [1, 1, 0, 0]>, <98, 23, 33, 10, 7, 0, 1, [1, 1, 0, 0]>, <99, 24, 34, 10, 7, 0, 1, [1, 1, 0, 0]>};
